************************************************************************
file with basedata            : mm11_.bas
initial value random generator: 305651900
************************************************************************
projects                      :  1
jobs (incl. supersource/sink ):  12
horizon                       :  78
RESOURCES
  - renewable                 :  2   R
  - nonrenewable              :  2   N
  - doubly constrained        :  0   D
************************************************************************
PROJECT INFORMATION:
pronr.  #jobs rel.date duedate tardcost  MPM-Time
    1     10      0       14        3       14
************************************************************************
PRECEDENCE RELATIONS:
jobnr.    #modes  #successors   successors
   0        1          3           1   2   3
   1        3          2           6   9
   2        3          2           4   5
   3        3          1           8
   4        3          3           7   8  10
   5        3          1           6
   6        3          2           8  10
   7        3          1           9
   8        3          1          11
   9        3          1          11
  10        3          1          11
  11        1          0        
************************************************************************
REQUESTS/DURATIONS:
jobnr. mode duration  R 1  R 2  R 3  R 4  E(W 1)
------------------------------------------------------------------------
  0      1     0       0    0    0    0     0
  1      1     2       6    0    0    3    18
  2      1     1       0    4    0    9    13
  3      1     3       0    9    6    0    45
  4      1     4       9    0    4    0    52
  5      1     1       0    5    9    0    14
  6      1     3       5    0    6    0    33
  7      1     1       5    0    0    8    13
  8      1     3       6    0    5    0    33
  9      1     8       0    6    2    0    64
 10      1     3       0    9    0    4    39
 11      1     0       0    0    0    0     0
************************************************************************
RESOURCEAVAILABILITIES:
  R 1
   112
************************************************************************
RESOURCE LIMITS:
jobnr.  l(R 1)  u(R 1)
------------------------------------------------------------------------
  0        0       0
  1        5       9
  2        7      13
  3        8      15
  4        7      13
  5        8      14
  6        6      11
  7        7      13
  8        6      11
  9        4       8
 10        7      13
 11        0       0
************************************************************************
SCENARIOS:
------------------------------------------------------------------------
RESOURCE k = 1
s = 1: (0, 29, 10, 63, 40, 9, 37, 12, 27, 48, 53, 0)
s = 2: (0, 13, 12, 49, 73, 9, 54, 19, 27, 60, 27, 0)
s = 3: (0, 18, 14, 58, 54, 11, 38, 11, 31, 103, 30, 0)
s = 4: (0, 29, 17, 57, 41, 15, 41, 17, 47, 46, 24, 0)
s = 5: (0, 14, 21, 30, 43, 23, 36, 13, 41, 65, 36, 0)
s = 6: (0, 23, 7, 36, 59, 11, 33, 11, 23, 77, 24, 0)
s = 7: (0, 15, 14, 31, 35, 12, 24, 11, 25, 66, 33, 0)
s = 8: (0, 18, 19, 57, 43, 19, 33, 14, 30, 42, 50, 0)
s = 9: (0, 18, 14, 34, 46, 14, 35, 16, 43, 48, 36, 0)
s = 10: (0, 20, 12, 46, 41, 11, 35, 11, 46, 77, 31, 0)
s = 11: (0, 19, 9, 31, 52, 13, 40, 10, 20, 72, 33, 0)
s = 12: (0, 20, 14, 61, 52, 12, 42, 18, 34, 57, 37, 0)
s = 13: (0, 23, 9, 58, 41, 8, 44, 17, 51, 87, 45, 0)
s = 14: (0, 18, 14, 38, 62, 15, 23, 11, 26, 85, 47, 0)
s = 15: (0, 11, 9, 48, 54, 12, 25, 14, 30, 77, 35, 0)
s = 16: (0, 21, 9, 75, 74, 12, 26, 10, 35, 52, 57, 0)
s = 17: (0, 13, 14, 76, 59, 18, 36, 8, 24, 81, 39, 0)
s = 18: (0, 18, 10, 28, 33, 19, 23, 10, 27, 97, 38, 0)
s = 19: (0, 20, 10, 32, 37, 13, 46, 18, 21, 97, 42, 0)
s = 20: (0, 12, 7, 40, 30, 10, 30, 11, 22, 80, 63, 0)
s = 21: (0, 18, 13, 54, 34, 19, 46, 16, 27, 93, 45, 0)
s = 22: (0, 19, 13, 60, 49, 21, 34, 11, 30, 86, 48, 0)
s = 23: (0, 18, 9, 28, 59, 14, 25, 16, 37, 70, 25, 0)
s = 24: (0, 17, 15, 72, 64, 14, 23, 12, 43, 58, 28, 0)
s = 25: (0, 14, 10, 35, 40, 12, 39, 10, 34, 69, 48, 0)
s = 26: (0, 19, 19, 28, 58, 19, 34, 15, 29, 94, 35, 0)
s = 27: (0, 16, 17, 34, 74, 15, 37, 12, 36, 103, 46, 0)
s = 28: (0, 17, 11, 70, 34, 15, 47, 13, 40, 56, 42, 0)
s = 29: (0, 14, 20, 44, 54, 16, 46, 15, 42, 97, 22, 0)
s = 30: (0, 12, 15, 28, 76, 12, 36, 9, 28, 58, 41, 0)
s = 31: (0, 25, 13, 36, 43, 14, 35, 24, 37, 60, 33, 0)
s = 32: (0, 19, 10, 49, 37, 20, 21, 13, 45, 62, 32, 0)
s = 33: (0, 12, 16, 54, 76, 17, 20, 12, 19, 63, 33, 0)
s = 34: (0, 29, 8, 45, 34, 22, 28, 8, 48, 52, 22, 0)
s = 35: (0, 13, 20, 27, 37, 11, 24, 11, 40, 64, 56, 0)
s = 36: (0, 15, 20, 75, 69, 12, 27, 10, 22, 70, 41, 0)
s = 37: (0, 27, 14, 35, 53, 10, 20, 15, 30, 75, 37, 0)
s = 38: (0, 14, 12, 63, 41, 12, 18, 17, 37, 67, 30, 0)
s = 39: (0, 11, 15, 48, 37, 15, 32, 14, 54, 49, 42, 0)
s = 40: (0, 14, 15, 40, 54, 15, 22, 12, 26, 46, 43, 0)
s = 41: (0, 17, 19, 51, 36, 16, 30, 10, 22, 73, 40, 0)
s = 42: (0, 29, 16, 40, 65, 9, 35, 10, 22, 75, 31, 0)
s = 43: (0, 20, 15, 35, 38, 13, 19, 21, 32, 48, 66, 0)
s = 44: (0, 22, 8, 35, 88, 14, 43, 18, 27, 53, 40, 0)
s = 45: (0, 14, 8, 58, 50, 13, 36, 20, 29, 54, 26, 0)
s = 46: (0, 14, 12, 49, 47, 15, 25, 9, 26, 58, 34, 0)
s = 47: (0, 17, 12, 44, 43, 23, 39, 14, 35, 84, 64, 0)
s = 48: (0, 15, 9, 28, 71, 13, 44, 17, 37, 35, 32, 0)
s = 49: (0, 13, 10, 54, 47, 10, 47, 12, 27, 79, 44, 0)
s = 50: (0, 21, 15, 63, 80, 14, 37, 12, 36, 69, 46, 0)
s = 51: (0, 11, 11, 43, 59, 15, 38, 8, 21, 44, 39, 0)
s = 52: (0, 12, 18, 71, 45, 17, 36, 13, 27, 87, 32, 0)
s = 53: (0, 12, 13, 33, 37, 10, 21, 16, 39, 60, 24, 0)
s = 54: (0, 21, 18, 58, 36, 12, 25, 13, 28, 54, 61, 0)
s = 55: (0, 18, 14, 43, 87, 12, 41, 11, 43, 47, 22, 0)
s = 56: (0, 26, 15, 66, 51, 11, 44, 13, 59, 92, 36, 0)
s = 57: (0, 30, 13, 53, 32, 15, 45, 10, 26, 57, 33, 0)
s = 58: (0, 13, 13, 25, 55, 15, 28, 17, 41, 56, 40, 0)
s = 59: (0, 23, 8, 60, 44, 15, 43, 11, 24, 49, 37, 0)
s = 60: (0, 19, 13, 61, 60, 10, 28, 13, 22, 46, 36, 0)
s = 61: (0, 10, 9, 47, 60, 14, 21, 9, 22, 48, 41, 0)
s = 62: (0, 20, 17, 27, 46, 8, 27, 15, 23, 38, 46, 0)
s = 63: (0, 20, 13, 71, 63, 19, 25, 11, 37, 67, 30, 0)
s = 64: (0, 25, 19, 45, 81, 11, 29, 10, 26, 69, 33, 0)
s = 65: (0, 23, 9, 49, 69, 10, 37, 25, 38, 78, 34, 0)
s = 66: (0, 17, 13, 54, 60, 20, 28, 11, 25, 87, 29, 0)
s = 67: (0, 17, 13, 59, 81, 12, 58, 14, 27, 119, 57, 0)
s = 68: (0, 13, 14, 29, 54, 17, 25, 19, 18, 49, 42, 0)
s = 69: (0, 20, 17, 32, 41, 13, 31, 12, 31, 59, 41, 0)
s = 70: (0, 29, 24, 65, 52, 12, 29, 23, 36, 51, 44, 0)
s = 71: (0, 32, 15, 60, 93, 19, 22, 11, 34, 64, 52, 0)
s = 72: (0, 33, 19, 58, 44, 12, 44, 18, 34, 49, 32, 0)
s = 73: (0, 20, 19, 28, 42, 10, 31, 23, 19, 78, 46, 0)
s = 74: (0, 30, 19, 41, 51, 11, 34, 14, 28, 55, 35, 0)
s = 75: (0, 17, 14, 38, 54, 11, 27, 13, 25, 51, 34, 0)
s = 76: (0, 27, 15, 29, 39, 8, 33, 16, 54, 47, 40, 0)
s = 77: (0, 26, 8, 67, 82, 20, 34, 16, 30, 49, 24, 0)
s = 78: (0, 19, 10, 34, 51, 14, 38, 10, 47, 67, 61, 0)
s = 79: (0, 15, 18, 38, 44, 11, 27, 12, 26, 98, 40, 0)
s = 80: (0, 21, 12, 61, 60, 20, 24, 11, 37, 59, 27, 0)
s = 81: (0, 17, 10, 31, 35, 12, 52, 8, 45, 74, 38, 0)
s = 82: (0, 10, 16, 44, 41, 19, 37, 9, 48, 63, 49, 0)
s = 83: (0, 34, 12, 60, 50, 13, 34, 13, 20, 63, 58, 0)
s = 84: (0, 17, 14, 43, 50, 16, 30, 11, 27, 54, 38, 0)
s = 85: (0, 14, 12, 75, 49, 10, 33, 13, 38, 66, 29, 0)
s = 86: (0, 22, 10, 32, 39, 11, 34, 8, 36, 87, 38, 0)
s = 87: (0, 15, 18, 42, 64, 14, 53, 14, 36, 46, 31, 0)
s = 88: (0, 19, 11, 28, 61, 13, 40, 22, 21, 74, 38, 0)
s = 89: (0, 19, 10, 67, 56, 9, 28, 18, 28, 119, 48, 0)
s = 90: (0, 17, 11, 67, 50, 9, 42, 22, 47, 63, 30, 0)
s = 91: (0, 13, 11, 33, 58, 12, 45, 26, 25, 87, 70, 0)
s = 92: (0, 18, 13, 43, 75, 18, 25, 12, 31, 67, 24, 0)
s = 93: (0, 18, 9, 39, 42, 15, 35, 11, 43, 58, 31, 0)
s = 94: (0, 19, 14, 34, 43, 16, 33, 21, 44, 56, 63, 0)
s = 95: (0, 23, 18, 29, 59, 10, 27, 10, 18, 66, 47, 0)
s = 96: (0, 13, 17, 36, 67, 9, 22, 16, 35, 59, 36, 0)
s = 97: (0, 17, 12, 36, 39, 12, 31, 10, 41, 62, 36, 0)
s = 98: (0, 15, 12, 66, 63, 14, 24, 15, 38, 89, 28, 0)
s = 99: (0, 14, 18, 58, 50, 21, 33, 9, 35, 62, 23, 0)
s = 100: (0, 13, 13, 38, 55, 8, 22, 14, 43, 62, 31, 0)
s = 101: (0, 15, 15, 43, 44, 11, 41, 12, 38, 48, 24, 0)
s = 102: (0, 21, 15, 30, 43, 19, 31, 8, 26, 46, 51, 0)
s = 103: (0, 17, 17, 54, 55, 12, 31, 8, 43, 73, 64, 0)
s = 104: (0, 12, 11, 32, 59, 11, 35, 10, 58, 70, 38, 0)
s = 105: (0, 25, 14, 51, 41, 21, 31, 16, 44, 63, 33, 0)
s = 106: (0, 11, 20, 62, 76, 15, 24, 12, 38, 40, 32, 0)
s = 107: (0, 15, 12, 51, 70, 13, 21, 12, 29, 53, 63, 0)
s = 108: (0, 23, 14, 54, 39, 14, 25, 9, 31, 48, 33, 0)
s = 109: (0, 18, 16, 33, 30, 11, 25, 24, 34, 76, 36, 0)
s = 110: (0, 21, 15, 43, 50, 14, 51, 20, 20, 56, 64, 0)
s = 111: (0, 20, 8, 49, 57, 13, 49, 19, 31, 69, 34, 0)
s = 112: (0, 20, 8, 62, 46, 12, 28, 14, 35, 99, 41, 0)
s = 113: (0, 17, 9, 31, 88, 14, 26, 10, 29, 61, 64, 0)
s = 114: (0, 21, 17, 35, 44, 9, 33, 9, 27, 40, 55, 0)
s = 115: (0, 24, 18, 46, 51, 21, 19, 11, 19, 60, 34, 0)
s = 116: (0, 23, 17, 57, 45, 8, 45, 10, 37, 80, 62, 0)
s = 117: (0, 13, 11, 37, 39, 12, 30, 14, 30, 40, 49, 0)
s = 118: (0, 21, 13, 28, 50, 25, 33, 15, 40, 64, 42, 0)
s = 119: (0, 15, 10, 33, 74, 11, 39, 10, 22, 81, 47, 0)
s = 120: (0, 21, 14, 42, 30, 13, 25, 12, 40, 62, 41, 0)
s = 121: (0, 18, 16, 33, 57, 12, 23, 10, 17, 70, 41, 0)
s = 122: (0, 25, 15, 35, 32, 14, 28, 13, 43, 58, 33, 0)
s = 123: (0, 20, 16, 41, 104, 10, 31, 16, 28, 76, 37, 0)
s = 124: (0, 17, 15, 31, 40, 10, 28, 15, 31, 40, 37, 0)
s = 125: (0, 17, 24, 39, 57, 16, 37, 12, 31, 55, 26, 0)
s = 126: (0, 18, 12, 49, 88, 20, 26, 12, 31, 54, 23, 0)
s = 127: (0, 17, 7, 30, 41, 13, 35, 14, 69, 54, 67, 0)
s = 128: (0, 26, 13, 33, 61, 10, 35, 8, 41, 39, 39, 0)
s = 129: (0, 17, 10, 74, 78, 13, 38, 12, 36, 86, 31, 0)
s = 130: (0, 14, 8, 40, 32, 8, 38, 22, 24, 74, 41, 0)
s = 131: (0, 13, 19, 29, 43, 15, 22, 12, 33, 63, 31, 0)
s = 132: (0, 14, 14, 47, 46, 9, 21, 12, 33, 54, 52, 0)
s = 133: (0, 15, 14, 34, 38, 19, 26, 10, 29, 87, 53, 0)
s = 134: (0, 12, 15, 39, 60, 11, 36, 8, 38, 52, 24, 0)
s = 135: (0, 13, 19, 39, 67, 11, 22, 12, 34, 43, 63, 0)
s = 136: (0, 15, 11, 46, 76, 15, 41, 11, 39, 55, 43, 0)
s = 137: (0, 13, 11, 36, 70, 20, 49, 21, 22, 34, 24, 0)
s = 138: (0, 19, 9, 32, 60, 21, 37, 15, 28, 46, 50, 0)
s = 139: (0, 19, 14, 30, 52, 16, 28, 10, 38, 70, 45, 0)
s = 140: (0, 23, 12, 64, 35, 13, 26, 13, 57, 38, 44, 0)
s = 141: (0, 23, 10, 77, 28, 12, 19, 15, 36, 76, 30, 0)
s = 142: (0, 16, 12, 50, 70, 20, 33, 12, 21, 67, 32, 0)
s = 143: (0, 23, 14, 78, 43, 16, 23, 16, 47, 44, 41, 0)
s = 144: (0, 19, 17, 48, 55, 14, 34, 11, 50, 68, 48, 0)
s = 145: (0, 20, 12, 56, 37, 14, 26, 14, 57, 52, 30, 0)
s = 146: (0, 16, 19, 27, 80, 13, 31, 17, 34, 78, 46, 0)
s = 147: (0, 21, 19, 31, 45, 9, 30, 11, 24, 82, 30, 0)
s = 148: (0, 13, 14, 32, 49, 13, 29, 14, 35, 100, 41, 0)
s = 149: (0, 16, 14, 41, 54, 11, 30, 12, 24, 60, 37, 0)
s = 150: (0, 11, 17, 39, 49, 12, 19, 9, 36, 94, 29, 0)
s = 151: (0, 17, 15, 34, 33, 15, 21, 19, 29, 82, 22, 0)
s = 152: (0, 20, 14, 42, 53, 10, 31, 17, 34, 41, 49, 0)
s = 153: (0, 16, 18, 65, 61, 11, 36, 16, 41, 92, 40, 0)
s = 154: (0, 10, 9, 26, 49, 9, 27, 12, 25, 70, 42, 0)
s = 155: (0, 22, 12, 40, 42, 13, 22, 12, 23, 53, 34, 0)
s = 156: (0, 14, 17, 53, 66, 11, 42, 10, 47, 42, 50, 0)
s = 157: (0, 25, 9, 54, 71, 13, 25, 26, 23, 41, 45, 0)
s = 158: (0, 14, 17, 41, 41, 18, 48, 14, 39, 62, 31, 0)
s = 159: (0, 18, 14, 49, 66, 13, 38, 11, 34, 69, 54, 0)
s = 160: (0, 15, 20, 67, 58, 13, 26, 18, 37, 56, 36, 0)
s = 161: (0, 14, 15, 28, 59, 11, 31, 10, 19, 99, 38, 0)
s = 162: (0, 18, 12, 71, 47, 10, 39, 10, 23, 98, 71, 0)
s = 163: (0, 24, 12, 40, 30, 19, 48, 14, 34, 54, 47, 0)
s = 164: (0, 24, 10, 37, 46, 12, 36, 8, 46, 77, 45, 0)
s = 165: (0, 12, 9, 37, 71, 20, 36, 11, 19, 88, 23, 0)
s = 166: (0, 12, 9, 57, 41, 21, 42, 16, 43, 72, 36, 0)
s = 167: (0, 19, 17, 48, 35, 22, 21, 12, 24, 68, 30, 0)
s = 168: (0, 17, 16, 28, 45, 20, 25, 17, 44, 120, 45, 0)
s = 169: (0, 18, 16, 53, 36, 14, 23, 10, 34, 68, 32, 0)
s = 170: (0, 12, 9, 39, 63, 14, 27, 7, 32, 63, 41, 0)
s = 171: (0, 18, 14, 33, 61, 16, 53, 19, 23, 96, 21, 0)
s = 172: (0, 18, 13, 43, 60, 16, 33, 11, 44, 59, 32, 0)
s = 173: (0, 13, 12, 30, 80, 10, 21, 10, 24, 42, 45, 0)
s = 174: (0, 19, 10, 29, 61, 12, 43, 12, 24, 43, 68, 0)
s = 175: (0, 16, 9, 70, 83, 10, 54, 12, 44, 62, 46, 0)
s = 176: (0, 16, 10, 43, 35, 8, 34, 21, 19, 81, 38, 0)
s = 177: (0, 19, 13, 55, 60, 16, 30, 22, 37, 65, 49, 0)
s = 178: (0, 12, 11, 62, 73, 13, 36, 8, 39, 93, 63, 0)
s = 179: (0, 28, 16, 80, 39, 14, 40, 17, 41, 39, 47, 0)
s = 180: (0, 22, 9, 45, 31, 14, 48, 10, 36, 64, 33, 0)
s = 181: (0, 13, 15, 33, 36, 17, 40, 10, 32, 44, 53, 0)
s = 182: (0, 12, 17, 32, 49, 16, 29, 9, 28, 47, 22, 0)
s = 183: (0, 22, 16, 59, 71, 9, 31, 10, 25, 73, 39, 0)
s = 184: (0, 18, 10, 63, 48, 9, 37, 13, 34, 50, 26, 0)
s = 185: (0, 19, 12, 48, 59, 20, 21, 8, 25, 40, 35, 0)
s = 186: (0, 24, 13, 35, 52, 17, 39, 17, 27, 72, 46, 0)
s = 187: (0, 11, 12, 59, 68, 13, 33, 13, 46, 43, 55, 0)
s = 188: (0, 18, 8, 43, 79, 12, 24, 16, 48, 61, 31, 0)
s = 189: (0, 23, 9, 58, 58, 9, 48, 19, 36, 76, 41, 0)
s = 190: (0, 12, 9, 46, 77, 12, 31, 11, 37, 92, 44, 0)
s = 191: (0, 21, 17, 25, 43, 17, 25, 11, 23, 67, 38, 0)
s = 192: (0, 20, 12, 48, 57, 11, 59, 12, 30, 61, 25, 0)
s = 193: (0, 22, 12, 61, 40, 14, 36, 12, 21, 92, 30, 0)
s = 194: (0, 22, 10, 45, 61, 17, 25, 9, 43, 60, 34, 0)
s = 195: (0, 16, 14, 32, 67, 17, 38, 10, 42, 50, 44, 0)
s = 196: (0, 15, 9, 63, 55, 16, 21, 12, 43, 51, 52, 0)
s = 197: (0, 15, 15, 40, 74, 16, 43, 9, 35, 80, 33, 0)
s = 198: (0, 17, 7, 27, 90, 9, 30, 17, 45, 58, 35, 0)
s = 199: (0, 12, 14, 24, 46, 19, 25, 15, 25, 83, 35, 0)
s = 200: (0, 25, 17, 49, 65, 13, 23, 11, 35, 61, 39, 0)
************************************************************************
ES/LS-VALUES:
jobnr.   ES(i)    LS(i)
------------------------------------------------------------------------
  0        0        0
  1        0       59
  2        0       51
  3        0       65
  4        1       53
  5        1       63
  6        3       65
  7        9       61
  8        9       71
  9       11       63
 10        9       72
 11       26       78
************************************************************************
BIG-M-VALUES:
M1 = 30, M2 = 120
************************************************************************
